n=10;
E=[[0,1,0,0,1,1,0,0,1,1],
[1,0,0,1,0,0,0,0,0,0],
[0,0,0,1,0,1,1,0,0,0],
[0,1,1,0,1,0,0,0,1,0],
[1,0,0,1,0,1,1,1,0,0],
[0,0,1,0,1,0,0,0,0,1],
[0,0,1,0,1,0,0,0,1,1],
[0,0,0,0,1,0,0,0,0,0],
[1,0,0,1,0,0,1,0,0,0],
[1,0,0,0,0,1,1,0,0,0]];
p=[10,3,5,1,1,6,5,7,4,8];
